c musae-wiki:squirrel: The data was collected from the English Wikipedia (December 2018). https://snap.stanford.edu/data/wikipedia-article-networks.html
p edge 941 1253
e 1 2
e 1 229
e 1 520
e 1 667
e 1 769
e 1 828
e 1 424
e 1 84
e 1 699
e 3 4
e 3 377
e 4 308
e 4 169
e 5 6
e 5 35
e 6 522
e 7 8
e 7 239
e 7 401
e 7 535
e 7 24
e 7 681
e 7 706
e 7 732
e 8 205
e 8 253
e 8 289
e 8 413
e 8 409
e 8 723
e 8 330
e 9 10
e 9 333
e 9 16
e 9 255
e 11 12
e 11 408
e 11 645
e 11 653
e 11 89
e 11 707
e 11 137
e 11 573
e 11 616
e 12 364
e 12 232
e 12 336
e 13 14
e 13 46
e 13 355
e 13 75
e 13 483
e 13 524
e 13 333
e 13 44
e 13 562
e 13 748
e 13 434
e 13 775
e 13 189
e 13 523
e 14 275
e 14 150
e 14 834
e 15 16
e 15 273
e 16 52
e 16 108
e 16 109
e 16 322
e 16 406
e 16 371
e 16 557
e 16 735
e 16 833
e 16 231
e 16 131
e 17 18
e 17 54
e 17 73
e 17 165
e 17 216
e 17 416
e 17 253
e 17 665
e 19 20
e 19 365
e 21 22
e 21 508
e 21 536
e 21 738
e 21 266
e 21 214
e 21 77
e 21 824
e 21 149
e 21 941
e 22 538
e 23 24
e 24 513
e 25 26
e 25 306
e 25 62
e 25 380
e 25 73
e 25 354
e 25 615
e 25 532
e 25 731
e 25 358
e 26 47
e 26 204
e 27 28
e 27 348
e 27 122
e 27 429
e 27 610
e 27 685
e 27 808
e 28 669
e 28 371
e 29 30
e 29 589
e 29 381
e 29 830
e 29 779
e 29 462
e 30 159
e 31 32
e 31 338
e 31 226
e 31 802
e 32 36
e 33 34
e 33 138
e 33 213
e 33 69
e 33 669
e 33 813
e 34 185
e 34 199
e 35 36
e 35 53
e 35 140
e 35 124
e 35 565
e 35 412
e 35 537
e 35 307
e 35 923
e 35 509
e 36 374
e 36 444
e 36 47
e 36 915
e 37 38
e 37 84
e 37 124
e 37 291
e 37 435
e 37 197
e 37 132
e 37 621
e 37 250
e 37 724
e 37 734
e 37 835
e 37 849
e 37 399
e 37 487
e 39 40
e 39 460
e 39 773
e 40 694
e 41 42
e 41 96
e 41 440
e 41 501
e 41 466
e 41 380
e 42 251
e 43 44
e 43 325
e 43 363
e 43 368
e 43 376
e 43 432
e 43 516
e 43 743
e 43 774
e 43 784
e 43 799
e 43 98
e 43 356
e 43 867
e 43 874
e 43 889
e 43 922
e 43 931
e 44 458
e 44 719
e 44 330
e 45 46
e 45 339
e 45 267
e 45 423
e 45 71
e 45 288
e 45 653
e 47 133
e 47 848
e 48 49
e 48 288
e 48 493
e 48 185
e 48 553
e 48 227
e 48 816
e 48 327
e 48 930
e 50 51
e 50 417
e 50 455
e 50 83
e 50 392
e 51 753
e 53 102
e 53 227
e 53 228
e 53 763
e 54 152
e 54 267
e 55 56
e 55 233
e 55 457
e 55 385
e 55 296
e 55 853
e 56 357
e 57 58
e 57 119
e 57 236
e 57 131
e 57 408
e 57 776
e 57 550
e 57 62
e 58 187
e 58 333
e 59 60
e 59 366
e 60 91
e 61 62
e 61 168
e 61 751
e 61 631
e 61 687
e 62 186
e 63 64
e 63 79
e 63 78
e 63 447
e 63 480
e 63 550
e 63 505
e 63 787
e 64 142
e 65 66
e 65 87
e 65 393
e 65 441
e 65 594
e 65 688
e 67 68
e 67 225
e 69 70
e 69 226
e 69 447
e 69 415
e 69 495
e 69 425
e 69 281
e 69 83
e 69 929
e 71 72
e 71 78
e 71 105
e 71 343
e 71 362
e 71 606
e 71 679
e 71 294
e 72 193
e 73 391
e 73 125
e 74 75
e 74 507
e 74 919
e 74 346
e 75 214
e 76 77
e 77 574
e 77 185
e 78 246
e 78 425
e 80 81
e 80 214
e 80 695
e 80 771
e 80 365
e 81 522
e 81 622
e 81 308
e 82 83
e 82 160
e 82 492
e 84 275
e 85 86
e 85 179
e 86 254
e 86 632
e 87 186
e 87 295
e 88 89
e 88 305
e 90 91
e 90 442
e 90 821
e 90 502
e 91 689
e 91 773
e 92 93
e 92 614
e 92 148
e 92 165
e 92 332
e 92 171
e 92 846
e 92 729
e 92 457
e 93 235
e 93 167
e 94 95
e 94 116
e 94 516
e 94 589
e 96 371
e 97 98
e 97 372
e 97 400
e 97 412
e 97 332
e 98 155
e 98 541
e 98 175
e 99 100
e 99 317
e 99 438
e 101 102
e 101 381
e 101 468
e 101 641
e 101 538
e 101 608
e 101 823
e 101 879
e 101 863
e 103 104
e 103 136
e 103 266
e 103 470
e 103 609
e 103 151
e 103 778
e 103 177
e 103 854
e 103 745
e 104 247
e 105 106
e 106 107
e 106 536
e 106 610
e 106 820
e 106 158
e 106 699
e 107 298
e 108 131
e 108 327
e 108 355
e 108 799
e 109 279
e 110 111
e 110 252
e 110 222
e 110 501
e 110 759
e 110 201
e 110 334
e 110 408
e 110 762
e 111 334
e 111 438
e 111 143
e 112 113
e 112 234
e 112 412
e 112 423
e 112 401
e 113 136
e 113 538
e 113 275
e 114 115
e 114 386
e 114 306
e 114 436
e 114 732
e 114 605
e 115 486
e 117 118
e 117 147
e 117 302
e 119 647
e 119 729
e 119 224
e 119 843
e 120 121
e 120 496
e 120 628
e 121 429
e 122 123
e 122 210
e 122 347
e 122 495
e 122 380
e 122 413
e 123 134
e 123 310
e 123 136
e 124 779
e 125 126
e 125 193
e 125 157
e 125 249
e 125 537
e 125 246
e 125 135
e 126 275
e 127 128
e 128 671
e 128 230
e 129 130
e 129 544
e 129 265
e 131 132
e 131 150
e 133 427
e 133 187
e 133 297
e 133 499
e 133 211
e 133 281
e 133 911
e 133 404
e 134 135
e 134 196
e 134 270
e 134 716
e 134 730
e 134 267
e 136 137
e 136 164
e 136 320
e 136 149
e 136 471
e 136 419
e 136 859
e 136 345
e 139 140
e 139 209
e 139 600
e 139 178
e 141 142
e 141 392
e 141 596
e 141 615
e 141 661
e 141 662
e 141 670
e 141 687
e 141 669
e 141 829
e 141 389
e 142 327
e 142 218
e 142 768
e 143 144
e 143 307
e 143 356
e 143 186
e 143 532
e 143 409
e 143 406
e 145 146
e 145 147
e 145 384
e 145 634
e 145 579
e 145 333
e 145 344
e 145 289
e 148 149
e 148 166
e 148 564
e 148 595
e 148 444
e 148 343
e 149 489
e 150 151
e 150 168
e 150 675
e 150 787
e 150 633
e 150 355
e 151 665
e 152 414
e 153 154
e 153 270
e 153 552
e 155 156
e 155 206
e 155 528
e 155 673
e 155 636
e 155 747
e 155 540
e 155 580
e 157 158
e 157 287
e 157 308
e 157 428
e 157 465
e 157 459
e 157 715
e 157 692
e 157 910
e 158 735
e 159 160
e 159 312
e 159 461
e 161 162
e 161 242
e 161 311
e 161 321
e 161 237
e 161 659
e 161 822
e 161 375
e 162 485
e 163 164
e 163 485
e 163 540
e 163 582
e 163 679
e 163 704
e 167 168
e 167 392
e 167 860
e 167 433
e 167 210
e 168 476
e 168 173
e 169 170
e 170 303
e 171 172
e 171 337
e 171 453
e 171 507
e 171 850
e 171 650
e 172 479
e 172 285
e 173 174
e 173 188
e 173 568
e 174 195
e 175 176
e 175 336
e 175 342
e 175 440
e 175 547
e 175 576
e 175 248
e 175 449
e 177 178
e 177 202
e 177 413
e 177 342
e 177 396
e 177 507
e 179 180
e 180 777
e 181 182
e 181 367
e 181 325
e 183 184
e 183 550
e 183 638
e 183 251
e 183 260
e 186 446
e 186 386
e 186 349
e 186 418
e 186 832
e 187 693
e 189 190
e 189 410
e 189 517
e 189 762
e 189 293
e 190 739
e 191 192
e 191 494
e 192 349
e 193 194
e 193 208
e 193 550
e 193 667
e 193 690
e 193 908
e 194 509
e 195 196
e 195 283
e 195 542
e 195 582
e 195 206
e 195 585
e 196 473
e 196 577
e 196 752
e 196 865
e 197 198
e 197 258
e 199 275
e 199 871
e 200 201
e 201 344
e 201 900
e 202 203
e 202 764
e 203 771
e 204 281
e 204 525
e 204 795
e 204 575
e 204 805
e 204 204
e 207 208
e 208 481
e 209 779
e 210 344
e 211 212
e 211 284
e 213 509
e 213 656
e 213 477
e 214 215
e 214 429
e 214 656
e 214 482
e 214 329
e 214 446
e 217 218
e 219 220
e 219 302
e 219 561
e 219 283
e 221 222
e 221 525
e 221 364
e 221 556
e 221 797
e 221 868
e 221 457
e 221 888
e 221 514
e 221 901
e 222 436
e 223 224
e 223 507
e 224 243
e 225 232
e 225 485
e 226 270
e 226 655
e 227 337
e 227 285
e 228 251
e 230 231
e 230 359
e 230 666
e 230 459
e 230 386
e 230 890
e 231 396
e 232 433
e 232 446
e 232 679
e 236 826
e 237 238
e 237 411
e 237 518
e 237 597
e 237 630
e 237 397
e 237 676
e 237 675
e 237 696
e 237 852
e 237 855
e 237 301
e 237 403
e 240 241
e 241 544
e 243 256
e 243 415
e 243 598
e 243 372
e 243 520
e 244 245
e 244 255
e 244 382
e 244 374
e 244 473
e 244 512
e 244 485
e 244 533
e 244 726
e 244 445
e 244 295
e 244 940
e 245 330
e 246 249
e 246 519
e 246 487
e 246 686
e 247 248
e 247 309
e 247 255
e 247 745
e 247 412
e 247 765
e 247 769
e 247 454
e 249 568
e 250 251
e 250 383
e 250 409
e 250 452
e 250 578
e 250 599
e 250 659
e 250 481
e 250 836
e 251 561
e 251 521
e 252 538
e 253 652
e 254 373
e 254 322
e 254 547
e 254 408
e 254 844
e 254 926
e 255 639
e 257 258
e 257 497
e 257 712
e 258 927
e 259 260
e 259 265
e 259 651
e 259 709
e 260 292
e 260 793
e 260 837
e 260 689
e 261 262
e 261 400
e 261 586
e 261 897
e 262 357
e 262 633
e 263 264
e 263 304
e 263 419
e 263 424
e 263 456
e 263 705
e 263 836
e 263 905
e 264 371
e 266 760
e 267 268
e 267 269
e 267 290
e 267 636
e 267 714
e 267 794
e 267 866
e 267 351
e 267 637
e 267 928
e 267 938
e 270 612
e 270 786
e 271 272
e 271 534
e 271 429
e 271 827
e 271 819
e 273 274
e 273 636
e 275 276
e 275 362
e 275 364
e 275 644
e 275 450
e 276 450
e 277 278
e 277 414
e 277 533
e 277 424
e 277 587
e 277 513
e 277 668
e 277 440
e 279 280
e 279 511
e 279 687
e 279 834
e 282 283
e 282 326
e 282 814
e 282 381
e 282 872
e 282 898
e 283 326
e 285 286
e 285 546
e 285 487
e 285 737
e 285 585
e 285 381
e 286 593
e 286 396
e 288 504
e 290 840
e 293 294
e 293 445
e 293 736
e 293 737
e 295 803
e 296 297
e 296 323
e 296 410
e 296 727
e 296 740
e 296 831
e 296 654
e 296 894
e 298 299
e 298 379
e 298 602
e 298 739
e 298 520
e 300 301
e 300 422
e 303 422
e 303 862
e 308 857
e 308 910
e 311 571
e 312 348
e 313 314
e 314 689
e 314 544
e 315 316
e 315 434
e 315 631
e 316 450
e 318 319
e 318 428
e 318 520
e 318 815
e 318 913
e 319 375
e 319 361
e 319 698
e 319 767
e 319 756
e 323 324
e 323 807
e 323 438
e 324 671
e 325 612
e 328 329
e 328 718
e 328 801
e 328 878
e 329 753
e 331 332
e 334 335
e 334 364
e 334 513
e 334 902
e 336 549
e 336 437
e 336 498
e 337 817
e 337 345
e 339 544
e 340 341
e 340 715
e 343 719
e 344 697
e 344 704
e 344 791
e 344 433
e 344 856
e 344 621
e 345 346
e 345 402
e 345 602
e 345 721
e 346 485
e 348 443
e 348 463
e 348 611
e 348 703
e 349 350
e 349 388
e 349 500
e 349 625
e 349 384
e 349 459
e 349 366
e 351 352
e 351 542
e 353 354
e 353 434
e 353 465
e 353 469
e 353 472
e 353 499
e 353 875
e 353 794
e 357 358
e 357 728
e 357 359
e 360 361
e 360 421
e 364 459
e 364 488
e 364 551
e 364 763
e 364 790
e 365 405
e 367 628
e 369 370
e 369 548
e 369 616
e 371 418
e 371 592
e 371 620
e 371 733
e 371 796
e 377 378
e 380 671
e 381 717
e 384 385
e 384 660
e 384 683
e 385 719
e 386 387
e 386 494
e 386 556
e 386 635
e 386 546
e 388 476
e 388 450
e 389 390
e 389 858
e 390 612
e 391 484
e 391 532
e 391 711
e 393 529
e 394 395
e 394 637
e 394 903
e 396 397
e 398 399
e 398 588
e 398 677
e 399 541
e 400 477
e 400 673
e 401 723
e 402 870
e 403 404
e 403 481
e 407 408
e 414 415
e 415 507
e 419 573
e 419 783
e 419 935
e 419 939
e 420 421
e 420 792
e 421 684
e 421 571
e 421 622
e 425 426
e 425 819
e 425 595
e 425 932
e 427 678
e 430 431
e 430 624
e 430 655
e 430 937
e 431 810
e 435 478
e 436 437
e 436 450
e 436 575
e 436 484
e 436 722
e 437 450
e 438 439
e 438 881
e 441 453
e 443 789
e 448 449
e 450 451
e 450 603
e 450 646
e 453 454
e 453 781
e 455 664
e 458 506
e 458 770
e 458 816
e 458 874
e 461 462
e 461 877
e 462 741
e 463 464
e 463 643
e 466 467
e 466 699
e 470 538
e 474 475
e 475 669
e 476 477
e 476 658
e 481 482
e 481 682
e 481 873
e 481 891
e 481 895
e 485 521
e 485 545
e 485 700
e 485 851
e 485 782
e 485 880
e 485 718
e 486 487
e 486 773
e 486 694
e 488 566
e 488 597
e 488 527
e 489 509
e 489 680
e 489 784
e 490 491
e 490 563
e 491 502
e 493 665
e 497 498
e 498 507
e 502 503
e 502 655
e 504 505
e 504 758
e 504 641
e 504 907
e 504 917
e 507 886
e 507 920
e 509 510
e 509 570
e 509 798
e 513 514
e 513 517
e 513 652
e 513 550
e 513 570
e 513 844
e 513 575
e 513 918
e 515 516
e 515 558
e 516 933
e 522 523
e 522 543
e 522 581
e 522 657
e 522 674
e 522 804
e 522 531
e 522 919
e 523 701
e 524 713
e 526 527
e 526 687
e 529 530
e 531 532
e 536 569
e 536 838
e 536 568
e 538 539
e 538 788
e 538 912
e 538 592
e 544 746
e 547 626
e 547 605
e 548 899
e 550 694
e 550 568
e 551 552
e 551 658
e 551 668
e 551 560
e 551 914
e 554 555
e 554 570
e 554 654
e 554 825
e 554 683
e 556 696
e 559 560
e 559 567
e 559 672
e 559 892
e 565 812
e 568 665
e 568 722
e 569 749
e 571 572
e 574 719
e 579 580
e 579 583
e 580 593
e 584 585
e 585 757
e 590 591
e 591 665
e 591 925
e 592 683
e 593 876
e 597 842
e 597 861
e 597 936
e 600 601
e 604 605
e 604 882
e 606 683
e 607 608
e 610 667
e 610 784
e 612 613
e 612 622
e 616 617
e 616 772
e 618 619
e 618 750
e 618 734
e 622 623
e 626 627
e 626 924
e 628 629
e 628 663
e 629 777
e 632 664
e 632 869
e 633 883
e 633 885
e 639 640
e 642 643
e 642 708
e 648 649
e 648 650
e 663 664
e 664 720
e 669 725
e 669 893
e 683 839
e 685 818
e 687 744
e 691 692
e 691 845
e 694 754
e 694 906
e 698 753
e 701 702
e 701 841
e 709 710
e 709 766
e 709 750
e 709 800
e 709 806
e 718 809
e 719 720
e 719 805
e 719 827
e 719 739
e 719 909
e 721 887
e 739 899
e 741 742
e 741 761
e 755 756
e 755 802
e 756 884
e 761 837
e 761 847
e 772 921
e 777 785
e 777 896
e 779 780
e 779 839
e 781 782
e 810 811
e 839 904
e 863 864
e 902 916
e 903 934
l 485
t 130 862
